(set-logic QF_NRA)
(declare-fun y1 () Real)
(declare-fun y12 () Real)
(declare-fun y23 () Real)
(declare-fun y34 () Real)
(declare-fun y41 () Real)
(assert (<= 2.5854 y1))
(assert (<= y1 2.6508))
(assert (<= 2.0 y12))
(assert (<= y12 2.46350884418))
(assert (<= 2.0 y23))
(assert (<= y23 2.46350884418))
(assert (<= 2.0 y34))
(assert (<= y34 2.46350884418))
(assert (<= 2.0 y41))
(assert (<= y41 2.46350884418))
(assert (not (< (+ (* 2.0 (* 3.14159265 0.128506)) (+ (* (+ (- 0.066254) (+ 0.234791 (+ (- 0.097658) (- 0.070878)))) y1) (+ (* 2.0 (* (+ 0.003287 (- 0.003287)) y12)) (+ (* 2.0 (* (+ (- 0.003287) 0.003287) y23)) (+ (* 2.0 (* (+ 0.003287 (- 0.003287)) y34)) (+ (* 2.0 (* (+ (- 0.003287) 0.003287) y41)) (+ (- 0.104563) (+ (- 0.786309) (+ 0.050047 0.033394))))))))) 0.0)))
(check-sat)
(exit)
